#######################
Slurm job id: 17497813_153
Running on machine: p47
Running cmd: /nfs/shared/static-builds/gurobi1003 SOFTMEMLIMIT=125 MIPFocus=2 Presolve=2 TimeLimit=300 seed=2 /nfs/models/miplib2010/k16x240.mps.bz2
#######################
Set parameter TimeLimit to value 300
Set parameter SoftMemLimit to value 125
Set parameter MIPFocus to value 2
Set parameter LogFile to value 1003-MIPFocus2-Presolve2-TimeLimit300-k16x240-2.log
Set parameter Presolve to value 2
Set parameter Seed to value 2
Using license file /opt/gurobi/gurobi.lic

Gurobi Optimizer version 10.0.3 build v10.0.3rc0 (linux64)
Copyright (c) 2023, Gurobi Optimization, LLC

Read MPS format model from file /nfs/models/miplib2010/k16x240.mps.bz2
Reading time = 0.00 seconds
k16x240: 256 rows, 480 columns, 960 nonzeros

CPU model: Intel(R) Xeon(R) E-2388G CPU @ 3.20GHz, instruction set [SSE2|AVX|AVX2|AVX512]
Thread count: 8 physical cores, 16 logical processors, using up to 16 threads

Optimize a model with 256 rows, 480 columns and 960 nonzeros
Model fingerprint: 0x4e80885f
Variable types: 240 continuous, 240 integer (240 binary)
Coefficient statistics:
  Matrix range     [1e+00, 1e+03]
  Objective range  [1e+00, 1e+03]
  Bounds range     [1e+00, 1e+03]
  RHS range        [4e+00, 4e+02]
Found heuristic solution: objective 20929.000000
Presolve time: 0.00s
Presolved: 256 rows, 480 columns, 960 nonzeros
Variable types: 240 continuous, 240 integer (240 binary)
Root relaxation presolve removed 241 rows and 240 columns
Root relaxation presolved: 15 rows, 240 columns, 450 nonzeros


Root relaxation: objective 2.769838e+03, 16 iterations, 0.00 seconds (0.00 work units)

    Nodes    |    Current Node    |     Objective Bounds      |     Work
 Expl Unexpl |  Obj  Depth IntInf | Incumbent    BestBd   Gap | It/Node Time

     0     0 2769.83800    0   14 20929.0000 2769.83800  86.8%     -    0s
H    0     0                    11359.000000 2769.83800  75.6%     -    0s
H    0     0                    11157.000000 2769.83800  75.2%     -    0s
H    0     0                    11061.000000 8116.87580  26.6%     -    0s
     0     0 8116.87580    0   26 11061.0000 8116.87580  26.6%     -    0s
H    0     0                    10895.000000 8116.87580  25.5%     -    0s
     0     0 8588.30479    0   25 10895.0000 8588.30479  21.2%     -    0s
     0     0 8613.92228    0   22 10895.0000 8613.92228  20.9%     -    0s
H    0     0                    10779.000000 8709.92265  19.2%     -    0s
     0     0 8709.92265    0   22 10779.0000 8709.92265  19.2%     -    0s
H    0     0                    10678.000000 8709.92265  18.4%     -    0s
     0     0 8836.17770    0   32 10678.0000 8836.17770  17.2%     -    0s
     0     0 8840.98127    0   38 10678.0000 8840.98127  17.2%     -    0s
     0     0 8996.21254    0   39 10678.0000 8996.21254  15.8%     -    0s
     0     0 9022.71041    0   35 10678.0000 9022.71041  15.5%     -    0s
     0     0 9026.23743    0   46 10678.0000 9026.23743  15.5%     -    0s
     0     0 9077.06898    0   30 10678.0000 9077.06898  15.0%     -    0s
     0     0 9096.60755    0   32 10678.0000 9096.60755  14.8%     -    0s
     0     0 9098.57128    0   36 10678.0000 9098.57128  14.8%     -    0s
     0     0 9124.39357    0   34 10678.0000 9124.39357  14.5%     -    0s
     0     0 9124.39357    0   34 10678.0000 9124.39357  14.5%     -    0s
     0     2 9124.39357    0   34 10678.0000 9124.39357  14.5%     -    0s
H 1102   756                    10674.000000 9439.55741  11.6%  20.4    0s
 28568 11650     cutoff   44      10674.0000 10002.6873  6.29%  23.9    5s
 70004 18915 10595.8174   44   21 10674.0000 10194.6356  4.49%  24.5   10s
 109842 17868     cutoff   39      10674.0000 10336.3214  3.16%  25.1   15s
 150170  6119     cutoff   29      10674.0000 10506.5345  1.57%  24.8   20s

Cutting planes:
  Gomory: 2
  Lift-and-project: 17
  Cover: 79
  Implied bound: 17
  MIR: 177
  Flow cover: 291
  Flow path: 34
  Inf proof: 4
  Zero half: 12
  Network: 44
  Relax-and-lift: 2

Explored 159624 nodes (3888638 simplex iterations) in 20.99 seconds (35.22 work units)
Thread count was 16 (of 16 available processors)

Solution count 8: 10674 10678 10779 ... 20929

Optimal solution found (tolerance 1.00e-04)
Best objective 1.067400000000e+04, best bound 1.067400000000e+04, gap 0.0000%
